100
32
19
22
13
14
5
12
9
15
17
1
3
9
14
11
9
9
5
4
1
1
19
1
19
4
1
2
1
7
1
1
1
1
19
2
2
3
2
2
2
1
9
2
18
18
3
1
2
18
17
1
1
4
3
4
1
2
1
1
3
3
2
20
1
1
17
5
1
2
1
1
1
2
2
1
3
4
2
3
7
1
3
4
17
2
1
2
2
2
1
1
1
19
1
1
1
4
2
1
1
1